&CONTROL
  calculation = 'scf'
  prefix = 'pwscf'
  nstep = 1000
  wf_collect = True
  pseudo_dir = './pspots'
  tprnfor = True
  restart_mode = 'from_scratch'
  outdir = './tmp'
/

&SYSTEM
  ecutwfc = 30.0
  ibrav = 0
  nat = 4
  ntyp = 2
  ecutrho = 120.0
/

&ELECTRONS
  conv_thr = 1e-06
  mixing_beta = 0.7
  electron_maxstep = 150
  diagonalization = 'david'
  mixing_ndim = 8
  mixing_mode = 'plain'
/

ATOMIC_SPECIES
    H     1.01  H.q1.gth
    N    14.01  N.q5.gth

ATOMIC_POSITIONS angstrom
    N       3.8126876845       3.8255426845       3.8310076845
    H       4.7989876845       3.6455326845       3.6339676845
    H       3.6678476845       4.8213026845       3.6542976845
    H       3.6960476845       3.6967526845       4.8328676845

K_POINTS gamma

CELL_PARAMETERS bohr
     16.0000000000       0.0000000000       0.0000000000
      0.0000000000      16.0000000000       0.0000000000
      0.0000000000       0.0000000000      16.0000000000

