&CONTROL
  calculation = 'scf'
  restart_mode = 'from_scratch'
  pseudo_dir = '../GTH_PBE'
  outdir = './tmp'
  wf_collect = .true.
/

&SYSTEM
  ibrav   = 0
  ntyp    = 1
  nat     = 1
  ecutwfc = 50.0
  occupations = 'smearing'
  smearing = 'mv'
  degauss = 0.01
  nspin = 2
  starting_magnetization(1) = 0.5d0
/

&ELECTRONS
  electron_maxstep = 150
  mixing_beta = 0.5
/

ATOMIC_SPECIES
Ni  1.00  Ni.q18.gth

ATOMIC_POSITIONS bohr
Ni   0.0  0.0  0.0

K_POINTS crystal
1
0.0   0.0   0.0   1.0

CELL_PARAMETERS bohr
16.0   0.0   0.0
 0.0  16.0   0.0
 0.0   0.0  16.0


