% chk=CHECKPOINT.chk
# P gfinput
# B3LYP/STO-3G
# IOP(6/7=3)

Generated input file

0 1
N       0.0000000000       0.0000000000       0.1164890000
H       0.0000000000       0.9397310000      -0.2718080000
H       0.8138310000      -0.4698650000      -0.2718080000
H      -0.8138310000      -0.4698650000      -0.2718080000

